121
0 93 23 98 100 102 49 55 22 101 
17 71 65 1 10 33 116 41 46 18 
26 95 15 24 111 60 83 81 62 30 
64 78 120 72 85 20 34 56 44 2 
67 37 50 115 104 91 5 76 99 97 
87 63 38 86 107 82 54 59 21 3 
94 69 28 16 14 61 35 114 39 58 
112 13 12 43 36 19 32 96 27 31 
66 42 75 110 29 105 80 79 57 8 
4 89 45 25 6 113 92 109 11 52 
40 77 106 73 108 103 48 90 74 53 
7 9 118 51 88 68 119 70 47 84 
117 
